NAME: GRASP_40_15
TYPE: TSP
COMMENT: line_40_15
DIMENSION: 40
EDGE_WEIGHT_TYPE: EUC_2D
NODE_COORD_SECTION
1 1970 3900
2 709 4337
3 1650 4594
4 749 2719
5 4952 3118
6 3910 901
7 53 3180
8 4203 1920
9 1020 450
10 681 2038
11 89 4960
12 1615 2756
13 1508 3597
14 4030 1657
15 428 4276
16 85 697
17 4075 2008
18 4357 552
19 2006 1467
20 1032 4397
21 4809 3088
22 3474 1936
23 2988 4852
24 1285 3730
25 2292 142
26 3312 2964
27 1234 4026
28 902 4244
29 1683 3208
30 2238 4809
31 2133 1388
32 3126 2862
33 2805 2947
34 2719 404
35 3408 907
36 1328 4423
37 1373 4701
38 4504 4824
39 59 2360
40 2942 2542
